T = 11; %Numero de trabajadores
N = 2; %Numero de trabajadores por turno
D = 12; %Numero de dias a trabajar
MaxDT = 4; %Maximo dias consecutivos
MaxDL = 2;%Maximo dias libres consecutivos
MinDT = 4; %Minimo dias a trabajar
numIn = 3; %Numero de pares de incompatibles
rel = [|2,4|3,5|6,1|];% pares de incompatibles
supervisores = {1,3,5,6,8,9}; %Los supervisores